minizinc/sudoku_problems2/sudoku_p64.dzn
%
% sudoku_p64.dzn
% See http://www.hakank.org/minizinc/sudoku_gcc.mzn
% 
% This problem is problem 64 from
% Gecode's sudoku.cpp
% http://www.gecode.org/gecode-doc-latest/sudoku_8cpp-source.html
% 
x = array2d(1..n, 1..n, [   
% http://janko.at/Raetsel/Sudoku/511.a.htm
% 64
 10,  _,  _,  9,  5,  _, 11,  _, 16,  _,  _,  _,  8,  _, 15, 13,
 16,  _, 13,  _,  _,  _,  6, 15, 11,  _,  _,  _, 10,  5,  _,  _,
  _, 11,  _,  _,  _,  1, 13,  8,  3,  _, 10,  9, 16,  _,  7,  _,
 15,  6,  8,  _,  _,  _,  _, 16,  5,  _,  _,  1,  _,  _,  _, 12,
  _,  _,  2,  8, 13, 10,  9,  _,  _,  5, 15, 12,  _,  _,  _, 16,
  _,  _, 16,  _,  8,  7,  _,  2,  _, 10,  4, 13,  _,  6,  _,  _,
  _,  _,  _,  _,  3, 15,  _,  _,  _,  _,  _, 14,  _, 12, 13,  9,
  9, 12,  5, 13,  _,  _,  _,  _,  _,  _, 16,  _, 15, 10,  8,  _,
  _,  7,  1, 11,  _,  6,  _,  _,  _,  _,  _,  _,  5,  8,  4,  2,
 13,  5, 15,  _, 11,  _,  _,  _,  _,  _,  2,  6,  _,  _,  _,  _,
  _,  _,  9,  _,  1,  2,  7,  _, 15,  _,  8,  5,  _, 13,  _,  _,
  2,  _,  _,  _, 14,  3,  5,  _,  _, 12, 11,  7,  1,  9,  _,  _,
  6,  _,  _,  _, 15,  _,  _, 11, 14,  _,  _,  _,  _,  7,  3,  4,
  _, 15,  _, 14, 12, 13,  _,  3,  4,  7,  9,  _,  _,  _,  2,  _,
  _,  _, 10, 16,  _,  _,  _,  9, 12,  1,  _,  _,  _, 15,  _,  8,
  3,  9,  _,  5,  _,  _,  _,  1,  _, 13,  _, 15, 11,  _,  _, 10
]);

n = 16;


